************************************************************************
file with basedata            : mm16_.bas
initial value random generator: 1357936727
************************************************************************
projects                      :  1
jobs (incl. supersource/sink ):  12
horizon                       :  81
RESOURCES
  - renewable                 :  2   R
  - nonrenewable              :  2   N
  - doubly constrained        :  0   D
************************************************************************
PROJECT INFORMATION:
pronr.  #jobs rel.date duedate tardcost  MPM-Time
    1     10      0       25        1       25
************************************************************************
PRECEDENCE RELATIONS:
jobnr.    #modes  #successors   successors
   1        1          3           2   3   4
   2        3          1          11
   3        3          3           8   9  11
   4        3          2           5   8
   5        3          1           6
   6        3          2           7   9
   7        3          2          10  11
   8        3          1          10
   9        3          1          12
  10        3          1          12
  11        3          1          12
  12        1          0        
************************************************************************
REQUESTS/DURATIONS:
jobnr. mode duration  R 1  R 2  N 1  N 2
------------------------------------------------------------------------
  1      1     0       0    0    0    0
  2      1     1       7    0    9    7
         2     7       7    0    7    5
         3     9       0   10    3    3
  3      1     3       0    8    6    8
         2     4       0    6    5    5
         3     7       4    0    4    2
  4      1     8       0    5    4    8
         2     9       5    0    3    7
         3    10       0    3    3    6
  5      1     3       4    0    5    1
         2     3       0    9    8    1
         3     8       0    9    3    1
  6      1     4       0    8    1    6
         2     6       7    0    1    4
         3     8       4    0    1    4
  7      1     1       0    2    5    2
         2     4       9    0    5    2
         3     9       9    0    4    2
  8      1     3       5    0    6    5
         2     4       0    5    5    3
         3     4       0    9    4    4
  9      1     3       0    5    3    5
         2     6       0    4    3    5
         3     8       0    4    3    3
 10      1     8       0    9    6    2
         2     8       0    3   10    6
         3     8       0    8    5    4
 11      1     9       0    6    8    6
         2    10       0    4    7    3
         3    10       5    0    7    5
 12      1     0       0    0    0    0
************************************************************************
RESOURCEAVAILABILITIES:
  R 1  R 2  N 1  N 2
    8   16   60   54
************************************************************************
MAXIMAL LAGS:
from  to  type  delay
    1   12   ES      0
    1    2   ES      0
    2   12   ES      0
    1    3   ES      0
    3   12   ES      0
    1    4   ES      0
    4   12   ES      0
    1    5   ES      0
    5   12   ES      0
    1    6   ES      0
    6   12   ES      0
    1    7   ES      0
    7   12   ES      0
    1    8   ES      0
    8   12   ES      0
    1    9   ES      0
    9   12   ES      0
    1   10   ES      0
   10   12   ES      0
    1   11   ES      0
   11   12   ES      0
    1   12   ES      0
    2   11   SS      9
    2   11   SE     10
    2   11   ES    -11
    2   11   EE     -5
    3    8   SS     11
    3    8   SE    -11
    8    3   SE      0
    3    8   ES      0
    3    8   EE      2
    3    9   SS     -5
    3    9   SE      5
    3    9   ES     -6
    3    9   EE     12
    3   11   SS     12
    3   11   SE    -11
    3   11   ES     -8
    3   11   EE      4
    4    5   SS     -3
    4    5   SE     -5
    4    5   ES     11
    4    5   EE      6
    4    8   SS     -2
    4    8   SE      6
    4    8   ES      7
    4    8   EE     12
    5    6   SS      9
    5    6   SE     -2
    5    6   ES     -5
    5    6   EE     -3
    6    7   SS     -8
    6    7   SE      9
    6    7   ES      4
    6    7   EE     -5
    6    9   SS      1
    6    9   SE     -3
    6    9   ES     -4
    6    9   EE    -11
    7   10   SS      5
    7   10   SE      6
    7   10   ES     11
    7   10   EE     -7
    7   11   SS      8
    7   11   SE      9
    7   11   ES      1
    7   11   EE      5
    8   10   SS      3
    8   10   SE    -11
    8   10   ES     -1
    8   10   EE      8
************************************************************************
